(declare-const |a':39| Int)
(declare-const |b':31| Int)
(declare-const |K:44| Int)
(assert (and (or (not (and (<= (- |K:44|) 0) (<= |K:44| 0)))
                   (= (+ |b':31| -6) 0))
               (or (not (<= (+ (- |K:44|) 1) 0)) (= (+ |b':31| -6) 0))
               (or (not (<= (- |K:44|) 0)) (= (+ |a':39| (- |K:44|)) 0))
               (or (not (<= (- |K:44|) 0))
                     (<= (+ |b':31| (* -5 |K:44|) -6) 0))
               (or (and (= |K:44| 0) (= (+ (- |b':31|) 6) 0)
                          (= (- |a':39|) 0))
                     (and (<= (+ (- |K:44|) 1) 0) (= (+ |b':31| -6) 0)
                            (<= (+ |a':39| -6) 0) (<= (+ (- |a':39|) 1) 0)))
               (<= (- |K:44|) 0) (< (- |b':31|) 0) (<= (- |a':39|) 0)
               (<= (+ (- |a':39|) 6) 0) (not (= (+ |a':39| -6) 0))))
(check-sat)
